% seed = 0

mint = 31;
% maxt = 86;

nActs = 27;
dur = [0,5,1,1,3,4,1,4,2,2,7,2,4,2,8,4,4,3,3,3,3,4,4,6,5,1,0];

nSkills = 3;
sreq = [| 0,0,0,
	| 3,5,0,
	| 5,0,3,
	| 0,2,2,
	| 4,1,4,
	| 5,5,4,
	| 3,0,0,
	| 2,4,0,
	| 3,2,2,
	| 3,2,0,
	| 3,0,0,
	| 4,1,0,
	| 1,4,4,
	| 2,0,2,
	| 5,0,4,
	| 1,5,0,
	| 4,5,4,
	| 3,2,0,
	| 5,3,3,
	| 2,0,6,
	| 0,6,0,
	| 3,2,1,
	| 1,0,4,
	| 2,0,1,
	| 0,1,0,
	| 0,2,2,
	| 0,0,0, |];

% SumOfsreq = 162;

nResources = 22;
mastery = [| true,false,true,
	| true,false,false,
	| true,false,true,
	| true,true,true,
	| true,true,false,
	| false,true,false,
	| false,true,false,
	| true,true,false,
	| false,false,true,
	| false,false,true,
	| true,false,false,
	| true,true,false,
	| true,false,true,
	| true,false,true,
	| true,true,true,
	| false,false,true,
	| true,true,true,
	| false,true,false,
	| false,false,true,
	| true,false,true,
	| true,false,true,
	| false,false,true, |];

nPrecs = 39;
pred = [1,1,1,2,3,4,4,5,5,6,7,8,8,9,9,10,11,11,11,12,13,14,15,16,16,16,17,17,17,18,19,20,21,22,22,23,24,25,26];
succ = [2,3,4,5,6,7,8,9,12,9,10,9,11,13,16,13,13,14,15,13,17,18,18,18,19,20,21,23,24,21,22,22,25,25,26,25,25,27,27];

nUnrels = 134;
unpred = [2,2,2,2,2,2,2,2,2,3,3,3,3,3,3,3,3,3,4,4,4,5,5,5,5,5,5,5,6,6,6,6,6,6,6,7,7,7,7,7,7,7,7,7,7,7,7,8,8,9,9,9,9,9,10,10,10,10,10,10,10,10,10,10,11,11,11,11,11,11,12,12,12,12,12,12,12,12,13,13,13,13,13,13,13,13,14,14,14,14,14,14,14,14,14,15,15,15,15,15,15,15,15,16,16,16,17,17,17,17,17,18,18,18,18,18,18,19,19,19,19,20,20,20,21,21,21,21,22,22,23,23,24,25];
unsucc = [3,4,6,7,8,10,11,14,15,4,5,7,8,10,11,12,14,15,5,6,12,6,7,8,10,11,14,15,7,8,10,11,12,14,15,8,9,11,12,14,15,16,18,19,20,22,26,10,12,10,11,12,14,15,11,12,14,15,16,18,19,20,22,26,12,16,19,20,22,26,14,15,16,18,19,20,22,26,14,15,16,18,19,20,22,26,15,16,17,19,20,22,23,24,26,16,17,19,20,22,23,24,26,17,23,24,18,19,20,22,26,19,20,22,23,24,26,20,21,23,24,21,23,24,22,23,24,26,23,24,24,26,26,26];

USEFUL_RES = [{},
	{1,2,3,4,5,6,7,8,11,12,13,14,15,17,18,20,21},
	{1,2,3,4,5,8,9,10,11,12,13,14,15,16,17,19,20,21,22},
	{1,3,4,5,6,7,8,9,10,12,13,14,15,16,17,18,19,20,21,22},
	{1,2,3,4,5,6,7,8,9,10,11,12,13,14,15,16,17,18,19,20,21,22},
	{1,2,3,4,5,6,7,8,9,10,11,12,13,14,15,16,17,18,19,20,21,22},
	{1,2,3,4,5,8,11,12,13,14,15,17,20,21},
	{1,2,3,4,5,6,7,8,11,12,13,14,15,17,18,20,21},
	{1,2,3,4,5,6,7,8,9,10,11,12,13,14,15,16,17,18,19,20,21,22},
	{1,2,3,4,5,6,7,8,11,12,13,14,15,17,18,20,21},
	{1,2,3,4,5,8,11,12,13,14,15,17,20,21},
	{1,2,3,4,5,6,7,8,11,12,13,14,15,17,18,20,21},
	{1,2,3,4,5,6,7,8,9,10,11,12,13,14,15,16,17,18,19,20,21,22},
	{1,2,3,4,5,8,9,10,11,12,13,14,15,16,17,19,20,21,22},
	{1,2,3,4,5,8,9,10,11,12,13,14,15,16,17,19,20,21,22},
	{1,2,3,4,5,6,7,8,11,12,13,14,15,17,18,20,21},
	{1,2,3,4,5,6,7,8,9,10,11,12,13,14,15,16,17,18,19,20,21,22},
	{1,2,3,4,5,6,7,8,11,12,13,14,15,17,18,20,21},
	{1,2,3,4,5,6,7,8,9,10,11,12,13,14,15,16,17,18,19,20,21,22},
	{1,2,3,4,5,8,9,10,11,12,13,14,15,16,17,19,20,21,22},
	{4,5,6,7,8,12,15,17,18},
	{1,2,3,4,5,6,7,8,9,10,11,12,13,14,15,16,17,18,19,20,21,22},
	{1,2,3,4,5,8,9,10,11,12,13,14,15,16,17,19,20,21,22},
	{1,2,3,4,5,8,9,10,11,12,13,14,15,16,17,19,20,21,22},
	{4,5,6,7,8,12,15,17,18},
	{1,3,4,5,6,7,8,9,10,12,13,14,15,16,17,18,19,20,21,22},
	{}];

POTENTIAL_ACT = [{2,3,4,5,6,7,8,9,10,11,12,13,14,15,16,17,18,19,20,22,23,24,26},
	{2,3,5,6,7,8,9,10,11,12,13,14,15,16,17,18,19,20,22,23,24},
	{2,3,4,5,6,7,8,9,10,11,12,13,14,15,16,17,18,19,20,22,23,24,26},
	{2,3,4,5,6,7,8,9,10,11,12,13,14,15,16,17,18,19,20,21,22,23,24,25,26},
	{2,3,4,5,6,7,8,9,10,11,12,13,14,15,16,17,18,19,20,21,22,23,24,25,26},
	{2,4,5,6,8,9,10,12,13,16,17,18,19,21,22,25,26},
	{2,4,5,6,8,9,10,12,13,16,17,18,19,21,22,25,26},
	{2,3,4,5,6,7,8,9,10,11,12,13,14,15,16,17,18,19,20,21,22,23,24,25,26},
	{3,4,5,6,9,13,14,15,17,19,20,22,23,24,26},
	{3,4,5,6,9,13,14,15,17,19,20,22,23,24,26},
	{2,3,5,6,7,8,9,10,11,12,13,14,15,16,17,18,19,20,22,23,24},
	{2,3,4,5,6,7,8,9,10,11,12,13,14,15,16,17,18,19,20,21,22,23,24,25,26},
	{2,3,4,5,6,7,8,9,10,11,12,13,14,15,16,17,18,19,20,22,23,24,26},
	{2,3,4,5,6,7,8,9,10,11,12,13,14,15,16,17,18,19,20,22,23,24,26},
	{2,3,4,5,6,7,8,9,10,11,12,13,14,15,16,17,18,19,20,21,22,23,24,25,26},
	{3,4,5,6,9,13,14,15,17,19,20,22,23,24,26},
	{2,3,4,5,6,7,8,9,10,11,12,13,14,15,16,17,18,19,20,21,22,23,24,25,26},
	{2,4,5,6,8,9,10,12,13,16,17,18,19,21,22,25,26},
	{3,4,5,6,9,13,14,15,17,19,20,22,23,24,26},
	{2,3,4,5,6,7,8,9,10,11,12,13,14,15,16,17,18,19,20,22,23,24,26},
	{2,3,4,5,6,7,8,9,10,11,12,13,14,15,16,17,18,19,20,22,23,24,26},
	{3,4,5,6,9,13,14,15,17,19,20,22,23,24,26}];
